Route #1: 1 5 7 9 12 10 8 6 1 
Route #2: 1 1 2 14 13 11 4 1 
Route #3: 1 3 16 21 17 18 1 
Route #4: 1 15 20 19 1 

Cost 636.867
Time 0.0792


 * Another infos *

 Iterations: 22 Time: 0.0792 sec - 0.0013 min - 0.0000 horas
0.0000 h 0.0013 min
Problem dimension: 22
